NAME : tsp_376_sol.txt
COMMENT : OR-Tools Guided Local Search
TYPE : TOUR
DIMENSION : 50
COST : 5760
STATUS : ROUTING_SUCCESS
GAP : 0.00% (Reference Solution)
TOUR_SECTION
1
24
26
9
29
12
39
2
18
35
11
33
4
32
34
36
37
22
15
44
30
20
7
40
45
31
5
43
17
48
23
28
47
13
14
49
42
41
8
16
6
38
10
27
21
25
19
50
3
46
-1
